\ Model model
\ LP format - for model browsing. Use MPS format to capture full model detail.
Maximize
  0 z[0] + 0 z[1] + 0 z[2] + 0 z[3] + 0 z[4] + 0 z[5] + 0 z[6] + 0 z[7]
   + 0 z[8] + 0 z[9] + 0 z[10] + 0 z[11] + 0 z[12] + 0 z[13] + 0 z[14]
   + 0 z[15] + [ 2 L[0] * W[0] + 2 L[1] * W[1] + 2 L[2] * W[2]
   + 2 L[3] * W[3] ] / 2 
Subject To
 sumation: W[0] + W[1] + W[2] + W[3] <= 800
 Re-k1<We/Le(0): 0.1 L[0] - W[0] <= 0
 Re+k1>We/Le(0): 0.5 L[0] - W[0] >= 0
 Re-k1<We/Le(1): 0.1 L[1] - W[1] <= 0
 Re+k1>We/Le(1): 0.5 L[1] - W[1] >= 0
 Re-k1<We/Le(2): 0.1 L[2] - W[2] <= 0
 Re+k1>We/Le(2): 0.5 L[2] - W[2] >= 0
 Re-k1<We/Le(3): 0.1 L[3] - W[3] <= 0
 Re+k1>We/Le(3): 0.5 L[3] - W[3] >= 0
 Xe+We<W(0): X[0] + W[0] <= 800
 Ye+Le<L(0): Y[0] + L[0] <= 800
 Xe+We<W(1): X[1] + W[1] <= 800
 Ye+Le<L(1): Y[1] + L[1] <= 800
 Xe+We<W(2): X[2] + W[2] <= 800
 Ye+Le<L(2): Y[2] + L[2] <= 800
 Xe+We<W(3): X[3] + W[3] <= 800
 Ye+Le<L(3): Y[3] + L[3] <= 800
 Ae-k2<(We*Le)/(W*L)[0]: [ L[0] * W[0] ] >= -64000
 Ae+k2>(We*Le)/(W*L)[0]: [ L[0] * W[0] ] <= 192000
 Ae-k2<(We*Le)/(W*L)[1]: [ L[1] * W[1] ] >= -64000
 Ae+k2>(We*Le)/(W*L)[1]: [ L[1] * W[1] ] <= 192000
 Ae-k2<(We*Le)/(W*L)[2]: [ L[2] * W[2] ] >= -64000
 Ae+k2>(We*Le)/(W*L)[2]: [ L[2] * W[2] ] <= 192000
 Ae-k2<(We*Le)/(W*L)[3]: [ L[3] * W[3] ] >= -64000
 Ae+k2>(We*Le)/(W*L)[3]: [ L[3] * W[3] ] <= 192000
 GC0: z[1] = 1 -> - X[0] + X[1] - W[0] >= 0
 GC1: z[2] = 1 -> - X[0] + X[2] - W[0] >= 0
 GC2: z[3] = 1 -> - X[0] + X[3] - W[0] >= 0
 GC3: z[4] = 1 -> X[0] - X[1] - W[1] >= 0
 GC4: z[6] = 1 -> - X[1] + X[2] - W[1] >= 0
 GC5: z[7] = 1 -> - X[1] + X[3] - W[1] >= 0
 GC6: z[8] = 1 -> X[0] - X[2] - W[2] >= 0
 GC7: z[9] = 1 -> X[1] - X[2] - W[2] >= 0
 GC8: z[11] = 1 -> - X[2] + X[3] - W[2] >= 0
 GC9: z[12] = 1 -> X[0] - X[3] - W[3] >= 0
 GC10: z[13] = 1 -> X[1] - X[3] - W[3] >= 0
 GC11: z[14] = 1 -> X[2] - X[3] - W[3] >= 0
 GC12: z[1] = 0 -> X[0] - X[1] - W[1] >= 0
 GC13: z[2] = 0 -> X[0] - X[2] - W[2] >= 0
 GC14: z[3] = 0 -> X[0] - X[3] - W[3] >= 0
 GC15: z[4] = 0 -> - X[0] + X[1] - W[0] >= 0
 GC16: z[6] = 0 -> X[1] - X[2] - W[2] >= 0
 GC17: z[7] = 0 -> X[1] - X[3] - W[3] >= 0
 GC18: z[8] = 0 -> - X[0] + X[2] - W[0] >= 0
 GC19: z[9] = 0 -> - X[1] + X[2] - W[1] >= 0
 GC20: z[11] = 0 -> X[2] - X[3] - W[3] >= 0
 GC21: z[12] = 0 -> - X[0] + X[3] - W[0] >= 0
 GC22: z[13] = 0 -> - X[1] + X[3] - W[1] >= 0
 GC23: z[14] = 0 -> - X[2] + X[3] - W[2] >= 0
Bounds
 X[0] <= 790
 X[1] <= 790
 X[2] <= 790
 X[3] <= 790
 Y[0] <= 700
 Y[1] <= 700
 Y[2] <= 700
 Y[3] <= 700
 100 <= L[0] <= 800
 100 <= L[1] <= 800
 100 <= L[2] <= 800
 100 <= L[3] <= 800
 10 <= W[0] <= 800
 10 <= W[1] <= 800
 10 <= W[2] <= 800
 10 <= W[3] <= 800
Binaries
 z[0] z[1] z[2] z[3] z[4] z[5] z[6] z[7] z[8] z[9] z[10] z[11] z[12] z[13]
 z[14] z[15]
Generals
 X[0] X[1] X[2] X[3] Y[0] Y[1] Y[2] Y[3] L[0] L[1] L[2] L[3] W[0] W[1] W[2]
 W[3]
End
